; PUSH cw_1 SWAP1 DUP3 DUP5 SWAP2 => DUP3 DUP3 PUSH cw_1 SWAP3
(set-option :produce-proofs true)
; 
(set-info :status unknown)
(declare-fun storage_t ((_ BitVec 256) (_ BitVec 256) (_ BitVec 256) (_ BitVec 256) Int (_ BitVec 256)) (_ BitVec 256))
(declare-fun w_1 () (_ BitVec 256))
(declare-fun storage_s ((_ BitVec 256) (_ BitVec 256) (_ BitVec 256) (_ BitVec 256) Int (_ BitVec 256)) (_ BitVec 256))
(declare-fun exc_halt_t (Int) Bool)
(declare-fun exc_halt_s (Int) Bool)
(declare-fun stack_t ((_ BitVec 256) (_ BitVec 256) (_ BitVec 256) (_ BitVec 256) Int (_ BitVec 6)) (_ BitVec 256))
(declare-fun stack_s ((_ BitVec 256) (_ BitVec 256) (_ BitVec 256) (_ BitVec 256) Int (_ BitVec 6)) (_ BitVec 256))
(declare-fun sc_t (Int) (_ BitVec 6))
(declare-fun sc_s (Int) (_ BitVec 6))
(declare-fun used_gas_t ((_ BitVec 256) (_ BitVec 256) (_ BitVec 256) (_ BitVec 256) Int) Int)
(declare-fun used_gas_s ((_ BitVec 256) (_ BitVec 256) (_ BitVec 256) (_ BitVec 256) Int) Int)
(assert
 (exists ((x_0 (_ BitVec 256)) (x_1 (_ BitVec 256)) (x_2 (_ BitVec 256)) )(let (($x11332 (forall ((w (_ BitVec 256)) )(let ((?x11329 (storage_t x_0 x_1 x_2 w_1 4 w)))
 (let ((?x11330 (storage_s x_0 x_1 x_2 w_1 5 w)))
 (= ?x11330 ?x11329))))
 ))
 (let (($x3723 (exc_halt_t 4)))
 (let (($x3979 (exc_halt_s 5)))
 (let (($x7567 (= $x3979 $x3723)))
 (let (($x11846 (forall ((n (_ BitVec 6)) )(let ((?x11334 (stack_t x_0 x_1 x_2 w_1 4 n)))
 (let ((?x11335 (stack_s x_0 x_1 x_2 w_1 5 n)))
 (let (($x11336 (= ?x11335 ?x11334)))
 (let ((?x3757 (sc_t 4)))
 (let (($x9985 (bvsle ?x3757 n)))
 (or $x9985 $x11336)))))))
 ))
 (let ((?x3757 (sc_t 4)))
 (let ((?x805 (sc_s 5)))
 (let (($x9143 (= ?x805 ?x3757)))
 (let ((?x11342 (used_gas_t x_0 x_1 x_2 w_1 0)))
 (let ((?x11343 (used_gas_s x_0 x_1 x_2 w_1 0)))
 (let (($x11344 (= ?x11343 ?x11342)))
 (let (($x11349 (forall ((w (_ BitVec 256)) )(let ((?x11346 (storage_t x_0 x_1 x_2 w_1 0 w)))
 (let ((?x11347 (storage_s x_0 x_1 x_2 w_1 0 w)))
 (= ?x11347 ?x11346))))
 ))
 (let (($x56 (exc_halt_t 0)))
 (let (($x57 (exc_halt_s 0)))
 (let (($x58 (= $x57 $x56)))
 (let (($x11844 (forall ((n (_ BitVec 6)) )(let ((?x11351 (stack_t x_0 x_1 x_2 w_1 0 n)))
 (let ((?x11352 (stack_s x_0 x_1 x_2 w_1 0 n)))
 (let (($x11353 (= ?x11352 ?x11351)))
 (let ((?x63 (sc_t 0)))
 (let (($x2695 (bvsle ?x63 n)))
 (or $x2695 $x11353)))))))
 ))
 (let ((?x63 (sc_t 0)))
 (let ((?x72 (sc_s 0)))
 (let (($x73 (= ?x72 ?x63)))
 (let (($x584 (= $x3723 (or (exc_halt_t 3) (not (bvsle (_ bv0 6) (bvadd (_ bv60 6) (sc_t 3))))))))
 (let (($x11841 (forall ((w (_ BitVec 256)) )(let ((?x11359 (storage_t x_0 x_1 x_2 w_1 3 w)))
 (let ((?x11329 (storage_t x_0 x_1 x_2 w_1 4 w)))
 (= ?x11329 ?x11359))))
 ))
 (let (($x11840 (forall ((n (_ BitVec 6)) )(let ((?x11363 (stack_t x_0 x_1 x_2 w_1 3 n)))
 (let ((?x11334 (stack_t x_0 x_1 x_2 w_1 4 n)))
 (let ((?x2012 (sc_t 3)))
 (let ((?x4957 (bvadd (_ bv60 6) ?x2012)))
 (let (($x7301 (bvsle ?x4957 n)))
 (or $x7301 (= ?x11334 ?x11363))))))))
 ))
 (let ((?x2012 (sc_t 3)))
 (let (($x7829 (= ?x3757 ?x2012)))
 (let (($x11836 (= (used_gas_t x_0 x_1 x_2 w_1 4) (+ 3 (used_gas_t x_0 x_1 x_2 w_1 3)))))
 (let (($x11833 (= (stack_t x_0 x_1 x_2 w_1 4 (bvadd (_ bv62 6) ?x3757)) (stack_t x_0 x_1 x_2 w_1 3 (bvadd (_ bv62 6) ?x2012)))))
 (let (($x11828 (= (stack_t x_0 x_1 x_2 w_1 4 (bvadd (_ bv61 6) ?x3757)) (stack_t x_0 x_1 x_2 w_1 3 (bvadd (_ bv61 6) ?x2012)))))
 (let (($x11823 (= (stack_t x_0 x_1 x_2 w_1 4 (bvadd (_ bv60 6) ?x3757)) (stack_t x_0 x_1 x_2 w_1 3 (bvadd (_ bv63 6) ?x2012)))))
 (let (($x11818 (= (stack_t x_0 x_1 x_2 w_1 4 (bvadd (_ bv63 6) ?x3757)) (stack_t x_0 x_1 x_2 w_1 3 (bvadd (_ bv60 6) ?x2012)))))
 (let (($x1242 (not (= ((_ extract 6 6) (bvadd (_ bv1 7) (concat (_ bv0 1) (sc_t 2)))) (_ bv0 1)))))
 (let (($x903 (exc_halt_t 2)))
 (let (($x10336 (exc_halt_t 3)))
 (let (($x1176 (= $x10336 (or $x903 $x1242))))
 (let (($x11813 (forall ((w (_ BitVec 256)) )(let ((?x11392 (storage_t x_0 x_1 x_2 w_1 2 w)))
 (let ((?x11359 (storage_t x_0 x_1 x_2 w_1 3 w)))
 (= ?x11359 ?x11392))))
 ))
 (let (($x11812 (forall ((n (_ BitVec 6)) )(let ((?x11396 (stack_t x_0 x_1 x_2 w_1 2 n)))
 (let ((?x11363 (stack_t x_0 x_1 x_2 w_1 3 n)))
 (let ((?x4056 (sc_t 2)))
 (let (($x7395 (bvsle ?x4056 n)))
 (or $x7395 (= ?x11363 ?x11396)))))))
 ))
 (let (($x4906 (= ?x2012 (bvadd (_ bv1 6) (sc_t 2)))))
 (let ((?x11371 (used_gas_t x_0 x_1 x_2 w_1 3)))
 (let (($x1920 (exc_halt_t 1)))
 (let (($x1208 (not (= ((_ extract 6 6) (bvadd (_ bv1 7) (concat (_ bv0 1) (sc_t 1)))) (_ bv0 1)))))
 (let (($x11799 (forall ((w (_ BitVec 256)) )(let ((?x11412 (storage_t x_0 x_1 x_2 w_1 1 w)))
 (let ((?x11392 (storage_t x_0 x_1 x_2 w_1 2 w)))
 (= ?x11392 ?x11412))))
 ))
 (let (($x11798 (forall ((n (_ BitVec 6)) )(let ((?x11416 (stack_t x_0 x_1 x_2 w_1 1 n)))
 (let ((?x11396 (stack_t x_0 x_1 x_2 w_1 2 n)))
 (or (bvsle (bvadd (_ bv61 6) (sc_t 1)) n) (= ?x11396 ?x11416)))))
 ))
 (let ((?x4056 (sc_t 2)))
 (let (($x1496 (= ?x4056 (bvadd (_ bv1 6) (sc_t 1)))))
 (let ((?x11404 (used_gas_t x_0 x_1 x_2 w_1 2)))
 (let ((?x4023 (sc_t 1)))
 (let ((?x5606 (bvadd (_ bv63 6) ?x4023)))
 (let ((?x11751 (stack_t x_0 x_1 x_2 w_1 1 ?x5606)))
 (let (($x11789 (= (stack_t x_0 x_1 x_2 w_1 2 (bvadd (_ bv62 6) ?x4023)) (stack_t x_0 x_1 x_2 w_1 1 (bvadd (_ bv62 6) ?x4023)))))
 (let ((?x11781 (bvadd (_ bv61 6) ?x4023)))
 (let ((?x11782 (stack_t x_0 x_1 x_2 w_1 1 ?x11781)))
 (let (($x8823 (not (= ((_ extract 6 6) (bvadd (_ bv1 7) (concat (_ bv0 1) ?x63))) (_ bv0 1)))))
 (let (($x11772 (forall ((w (_ BitVec 256)) )(let ((?x11346 (storage_t x_0 x_1 x_2 w_1 0 w)))
 (let ((?x11412 (storage_t x_0 x_1 x_2 w_1 1 w)))
 (= ?x11412 ?x11346))))
 ))
 (let (($x11771 (forall ((n (_ BitVec 6)) )(let ((?x11351 (stack_t x_0 x_1 x_2 w_1 0 n)))
 (let ((?x11416 (stack_t x_0 x_1 x_2 w_1 1 n)))
 (or (bvsle (bvadd (_ bv61 6) (sc_t 0)) n) (= ?x11416 ?x11351)))))
 ))
 (let (($x10931 (= ?x4023 (bvadd (_ bv1 6) ?x63))))
 (let (($x11764 (= (stack_t x_0 x_1 x_2 w_1 1 (bvadd (_ bv63 6) ?x63)) (stack_t x_0 x_1 x_2 w_1 0 (bvadd (_ bv63 6) ?x63)))))
 (let (($x11760 (= (stack_t x_0 x_1 x_2 w_1 1 (bvadd (_ bv62 6) ?x63)) (stack_t x_0 x_1 x_2 w_1 0 (bvadd (_ bv62 6) ?x63)))))
 (let ((?x1326 (bvadd (_ bv61 6) ?x63)))
 (let ((?x11753 (stack_t x_0 x_1 x_2 w_1 0 ?x1326)))
 (let (($x11749 (= $x3979 (or (exc_halt_s 4) (not (bvsle (_ bv0 6) (bvadd (_ bv61 6) (sc_s 4))))))))
 (let (($x11745 (forall ((w (_ BitVec 256)) )(let ((?x11471 (storage_s x_0 x_1 x_2 w_1 4 w)))
 (let ((?x11330 (storage_s x_0 x_1 x_2 w_1 5 w)))
 (= ?x11330 ?x11471))))
 ))
 (let (($x11744 (forall ((n (_ BitVec 6)) )(let ((?x11475 (stack_s x_0 x_1 x_2 w_1 4 n)))
 (let ((?x11335 (stack_s x_0 x_1 x_2 w_1 5 n)))
 (or (bvsle (bvadd (_ bv61 6) (sc_s 4)) n) (= ?x11335 ?x11475)))))
 ))
 (let ((?x4305 (sc_s 4)))
 (let (($x1164 (= ?x805 ?x4305)))
 (let (($x11739 (= (used_gas_s x_0 x_1 x_2 w_1 5) (+ 3 (used_gas_s x_0 x_1 x_2 w_1 4)))))
 (let (($x11736 (= (stack_s x_0 x_1 x_2 w_1 5 (bvadd (_ bv62 6) ?x805)) (stack_s x_0 x_1 x_2 w_1 4 (bvadd (_ bv62 6) ?x4305)))))
 (let ((?x4412 (bvadd (_ bv63 6) ?x4305)))
 (let ((?x11694 (stack_s x_0 x_1 x_2 w_1 4 ?x4412)))
 (let (($x11728 (= (stack_s x_0 x_1 x_2 w_1 5 (bvadd (_ bv63 6) ?x805)) (stack_s x_0 x_1 x_2 w_1 4 (bvadd (_ bv61 6) ?x4305)))))
 (let (($x4995 (not (= ((_ extract 6 6) (bvadd (_ bv1 7) (concat (_ bv0 1) (sc_s 3)))) (_ bv0 1)))))
 (let (($x292 (exc_halt_s 3)))
 (let (($x64 (exc_halt_s 4)))
 (let (($x3525 (= $x64 (or $x292 $x4995 (not (bvsle (_ bv0 6) (bvadd (_ bv59 6) (sc_s 3))))))))
 (let (($x11722 (forall ((w (_ BitVec 256)) )(let ((?x11500 (storage_s x_0 x_1 x_2 w_1 3 w)))
 (let ((?x11471 (storage_s x_0 x_1 x_2 w_1 4 w)))
 (= ?x11471 ?x11500))))
 ))
 (let (($x11721 (forall ((n (_ BitVec 6)) )(let ((?x11504 (stack_s x_0 x_1 x_2 w_1 3 n)))
 (let ((?x11475 (stack_s x_0 x_1 x_2 w_1 4 n)))
 (let ((?x275 (sc_s 3)))
 (let ((?x9445 (bvadd (_ bv59 6) ?x275)))
 (let (($x1466 (bvsle ?x9445 n)))
 (or $x1466 (= ?x11475 ?x11504))))))))
 ))
 (let (($x7686 (= ?x4305 (bvadd (_ bv1 6) (sc_s 3)))))
 (let ((?x11483 (used_gas_s x_0 x_1 x_2 w_1 4)))
 (let ((?x275 (sc_s 3)))
 (let ((?x11204 (bvadd (_ bv63 6) ?x275)))
 (let ((?x11669 (stack_s x_0 x_1 x_2 w_1 3 ?x11204)))
 (let (($x11713 (= (stack_s x_0 x_1 x_2 w_1 4 (bvadd (_ bv62 6) ?x275)) (stack_s x_0 x_1 x_2 w_1 3 (bvadd (_ bv62 6) ?x275)))))
 (let (($x11709 (= (stack_s x_0 x_1 x_2 w_1 4 (bvadd (_ bv61 6) ?x275)) (stack_s x_0 x_1 x_2 w_1 3 (bvadd (_ bv61 6) ?x275)))))
 (let (($x11705 (= (stack_s x_0 x_1 x_2 w_1 4 (bvadd (_ bv60 6) ?x275)) (stack_s x_0 x_1 x_2 w_1 3 (bvadd (_ bv60 6) ?x275)))))
 (let ((?x9445 (bvadd (_ bv59 6) ?x275)))
 (let ((?x11697 (stack_s x_0 x_1 x_2 w_1 3 ?x9445)))
 (let (($x247 (exc_halt_s 2)))
 (let (($x110 (not (= ((_ extract 6 6) (bvadd (_ bv1 7) (concat (_ bv0 1) (sc_s 2)))) (_ bv0 1)))))
 (let (($x11687 (forall ((w (_ BitVec 256)) )(let ((?x11537 (storage_s x_0 x_1 x_2 w_1 2 w)))
 (let ((?x11500 (storage_s x_0 x_1 x_2 w_1 3 w)))
 (= ?x11500 ?x11537))))
 ))
 (let (($x11686 (forall ((n (_ BitVec 6)) )(let ((?x11541 (stack_s x_0 x_1 x_2 w_1 2 n)))
 (let ((?x11504 (stack_s x_0 x_1 x_2 w_1 3 n)))
 (or (bvsle (bvadd (_ bv61 6) (sc_s 2)) n) (= ?x11504 ?x11541)))))
 ))
 (let (($x389 (= ?x275 (bvadd (_ bv1 6) (sc_s 2)))))
 (let ((?x11512 (used_gas_s x_0 x_1 x_2 w_1 3)))
 (let ((?x218 (sc_s 2)))
 (let ((?x3669 (bvadd (_ bv63 6) ?x218)))
 (let ((?x11649 (stack_s x_0 x_1 x_2 w_1 2 ?x3669)))
 (let ((?x1632 (bvadd (_ bv62 6) ?x218)))
 (let ((?x11655 (stack_s x_0 x_1 x_2 w_1 2 ?x1632)))
 (let ((?x1294 (bvadd (_ bv61 6) ?x218)))
 (let ((?x11672 (stack_s x_0 x_1 x_2 w_1 2 ?x1294)))
 (let (($x11667 (= $x247 (or (exc_halt_s 1) (not (bvsle (_ bv0 6) (bvadd (_ bv62 6) (sc_s 1))))))))
 (let (($x11665 (forall ((w (_ BitVec 256)) )(let ((?x11568 (storage_s x_0 x_1 x_2 w_1 1 w)))
 (let ((?x11537 (storage_s x_0 x_1 x_2 w_1 2 w)))
 (= ?x11537 ?x11568))))
 ))
 (let (($x11664 (forall ((n (_ BitVec 6)) )(let ((?x11572 (stack_s x_0 x_1 x_2 w_1 1 n)))
 (let ((?x11541 (stack_s x_0 x_1 x_2 w_1 2 n)))
 (let ((?x154 (sc_s 1)))
 (let ((?x2413 (bvadd (_ bv62 6) ?x154)))
 (let (($x7918 (bvsle ?x2413 n)))
 (or $x7918 (= ?x11541 ?x11572))))))))
 ))
 (let ((?x154 (sc_s 1)))
 (let (($x1458 (= ?x218 ?x154)))
 (let ((?x11549 (used_gas_s x_0 x_1 x_2 w_1 2)))
 (let (($x189 (exc_halt_s 1)))
 (let (($x255 (= $x189 (or $x57 (not (= ((_ extract 6 6) (bvadd (_ bv1 7) (concat (_ bv0 1) ?x72))) (_ bv0 1)))))))
 (let (($x11645 (forall ((w (_ BitVec 256)) )(let ((?x11347 (storage_s x_0 x_1 x_2 w_1 0 w)))
 (let ((?x11568 (storage_s x_0 x_1 x_2 w_1 1 w)))
 (= ?x11568 ?x11347))))
 ))
 (let (($x11644 (forall ((n (_ BitVec 6)) )(let ((?x11352 (stack_s x_0 x_1 x_2 w_1 0 n)))
 (let ((?x11572 (stack_s x_0 x_1 x_2 w_1 1 n)))
 (let ((?x72 (sc_s 0)))
 (let (($x6067 (bvsle ?x72 n)))
 (or $x6067 (= ?x11572 ?x11352)))))))
 ))
 (let (($x10892 (= ?x154 (bvadd (_ bv1 6) ?x72))))
 (let (($x11612 (forall ((w (_ BitVec 256)) )(let ((?x11347 (storage_s x_0 x_1 x_2 w_1 0 w)))
 (= ?x11347 (_ bv0 256))))
 ))
 (let (($x11613 (= ?x11343 0)))
 (let (($x4490 (not $x57)))
 (let (($x11617 (= (stack_s x_0 x_1 x_2 w_1 0 (_ bv2 6)) x_2)))
 (let (($x11619 (= (stack_s x_0 x_1 x_2 w_1 0 (_ bv1 6)) x_1)))
 (let (($x11621 (= (stack_s x_0 x_1 x_2 w_1 0 (_ bv0 6)) x_0)))
 (let (($x96 (= ?x72 (_ bv3 6))))
 (and $x96 $x11621 $x11619 $x11617 $x4490 $x11613 $x11612 (= (stack_s x_0 x_1 x_2 w_1 1 ?x72) w_1) (= (used_gas_s x_0 x_1 x_2 w_1 1) (+ 3 ?x11343)) $x10892 $x11644 $x11645 $x255 (= ?x11649 (stack_s x_0 x_1 x_2 w_1 1 (bvadd (_ bv62 6) ?x154))) (= ?x11655 (stack_s x_0 x_1 x_2 w_1 1 (bvadd (_ bv63 6) ?x154))) (= ?x11549 (+ 3 (used_gas_s x_0 x_1 x_2 w_1 1))) $x1458 $x11664 $x11665 $x11667 (= ?x11669 ?x11672) (= (stack_s x_0 x_1 x_2 w_1 3 ?x1294) ?x11672) (= (stack_s x_0 x_1 x_2 w_1 3 ?x1632) ?x11655) (= (stack_s x_0 x_1 x_2 w_1 3 ?x3669) ?x11649) (= ?x11512 (+ 3 ?x11549)) $x389 $x11686 $x11687 (= $x292 (or $x110 $x247 (not (bvsle (_ bv0 6) ?x1294)))) (= ?x11694 ?x11697) (= (stack_s x_0 x_1 x_2 w_1 4 ?x9445) ?x11697) $x11705 $x11709 $x11713 (= (stack_s x_0 x_1 x_2 w_1 4 ?x11204) ?x11669) (= ?x11483 (+ 3 ?x11512)) $x7686 $x11721 $x11722 $x3525 $x11728 (= (stack_s x_0 x_1 x_2 w_1 5 (bvadd (_ bv61 6) ?x805)) ?x11694) $x11736 $x11739 $x1164 $x11744 $x11745 $x11749 (= ?x11751 ?x11753) (= (stack_t x_0 x_1 x_2 w_1 1 ?x1326) ?x11753) $x11760 $x11764 (= (used_gas_t x_0 x_1 x_2 w_1 1) (+ 3 ?x11342)) $x10931 $x11771 $x11772 (= $x1920 (or $x56 $x8823 (not (bvsle (_ bv0 6) ?x1326)))) (= (stack_t x_0 x_1 x_2 w_1 2 (bvadd (_ bv63 6) ?x4056)) ?x11782) (= (stack_t x_0 x_1 x_2 w_1 2 ?x11781) ?x11782) $x11789 (= (stack_t x_0 x_1 x_2 w_1 2 ?x5606) ?x11751) (= ?x11404 (+ 3 (used_gas_t x_0 x_1 x_2 w_1 1))) $x1496 $x11798 $x11799 (= $x903 (or $x1208 $x1920 (not (bvsle (_ bv0 6) ?x11781)))) (= (stack_t x_0 x_1 x_2 w_1 3 ?x4056) w_1) (= ?x11371 (+ 3 ?x11404)) $x4906 $x11812 $x11813 $x1176 $x11818 $x11823 $x11828 $x11833 $x11836 $x7829 $x11840 $x11841 $x584 $x73 $x11844 $x58 $x11349 $x11344 (not (and $x9143 $x11846 $x7567 $x11332)))))))))))))))))))))))))))))))))))))))))))))))))))))))))))))))))))))))))))))))))))))))))))))))))))))))))))))))))))))))
 )
(check-sat)
(get-proof)
